letting n =  10
letting blocks =  [[1, 1], [1, 2], [1, 3], [1, 8], [3, 1], [3, 8], [4, 1], [4, 3], [4, 9], [5, 1], [5, 2], [5, 8], [6, 3], [6, 4], [6, 6], [6, 7], [6, 9], [7, 3], [8, 1], [8, 6], [8, 8], [8, 9], [9, 7], [10, 8]]
